NAME           C:\Bruker\Hvattum\knapsack\Problems\class1\100-5-28.mps
ROWS
 N  OBJ
 L  CONSTR1
 L  CONSTR2
 L  CONSTR3
 L  CONSTR4
 L  CONSTR5
COLUMNS
    INT0001   'MARKER'  'INTORG'
    X1        OBJ       805
    X1        CONSTR1   34
    X1        CONSTR2   918
    X1        CONSTR3   517
    X1        CONSTR4   301
    X1        CONSTR5   305
    X2        OBJ       828
    X2        CONSTR1   668
    X2        CONSTR2   667
    X2        CONSTR3   434
    X2        CONSTR4   500
    X2        CONSTR5   641
    X3        OBJ       860
    X3        CONSTR1   13
    X3        CONSTR2   113
    X3        CONSTR3   662
    X3        CONSTR4   810
    X3        CONSTR5   668
    X4        OBJ       794
    X4        CONSTR1   945
    X4        CONSTR2   448
    X4        CONSTR3   941
    X4        CONSTR4   339
    X4        CONSTR5   781
    X5        OBJ       714
    X5        CONSTR1   650
    X5        CONSTR2   502
    X5        CONSTR3   732
    X5        CONSTR4   207
    X5        CONSTR5   643
    X6        OBJ       970
    X6        CONSTR1   388
    X6        CONSTR2   605
    X6        CONSTR3   149
    X6        CONSTR4   568
    X6        CONSTR5   770
    X7        OBJ       593
    X7        CONSTR1   111
    X7        CONSTR2   756
    X7        CONSTR3   258
    X7        CONSTR4   245
    X7        CONSTR5   380
    X8        OBJ       578
    X8        CONSTR1   333
    X8        CONSTR2   914
    X8        CONSTR3   676
    X8        CONSTR4   40
    X8        CONSTR5   42
    X9        OBJ       653
    X9        CONSTR1   244
    X9        CONSTR2   328
    X9        CONSTR3   650
    X9        CONSTR4   882
    X9        CONSTR5   864
    X10       OBJ       733
    X10       CONSTR1   671
    X10       CONSTR2   975
    X10       CONSTR3   195
    X10       CONSTR4   629
    X10       CONSTR5   211
    X11       OBJ       739
    X11       CONSTR1   426
    X11       CONSTR2   832
    X11       CONSTR3   931
    X11       CONSTR4   80
    X11       CONSTR5   548
    X12       OBJ       717
    X12       CONSTR1   304
    X12       CONSTR2   563
    X12       CONSTR3   995
    X12       CONSTR4   91
    X12       CONSTR5   290
    X13       OBJ       756
    X13       CONSTR1   513
    X13       CONSTR2   232
    X13       CONSTR3   716
    X13       CONSTR4   521
    X13       CONSTR5   120
    X14       OBJ       868
    X14       CONSTR1   508
    X14       CONSTR2   388
    X14       CONSTR3   745
    X14       CONSTR4   510
    X14       CONSTR5   420
    X15       OBJ       732
    X15       CONSTR1   93
    X15       CONSTR2   471
    X15       CONSTR3   8
    X15       CONSTR4   845
    X15       CONSTR5   91
    X16       OBJ       603
    X16       CONSTR1   32
    X16       CONSTR2   823
    X16       CONSTR3   408
    X16       CONSTR4   279
    X16       CONSTR5   189
    X17       OBJ       901
    X17       CONSTR1   562
    X17       CONSTR2   840
    X17       CONSTR3   221
    X17       CONSTR4   629
    X17       CONSTR5   172
    X18       OBJ       628
    X18       CONSTR1   658
    X18       CONSTR2   461
    X18       CONSTR3   876
    X18       CONSTR4   192
    X18       CONSTR5   833
    X19       OBJ       612
    X19       CONSTR1   817
    X19       CONSTR2   61
    X19       CONSTR3   544
    X19       CONSTR4   927
    X19       CONSTR5   503
    X20       OBJ       316
    X20       CONSTR1   387
    X20       CONSTR2   25
    X20       CONSTR3   380
    X20       CONSTR4   180
    X20       CONSTR5   254
    X21       OBJ       519
    X21       CONSTR1   200
    X21       CONSTR2   443
    X21       CONSTR3   364
    X21       CONSTR4   739
    X21       CONSTR5   251
    X22       OBJ       887
    X22       CONSTR1   688
    X22       CONSTR2   158
    X22       CONSTR3   18
    X22       CONSTR4   477
    X22       CONSTR5   933
    X23       OBJ       805
    X23       CONSTR1   190
    X23       CONSTR2   536
    X23       CONSTR3   421
    X23       CONSTR4   60
    X23       CONSTR5   328
    X24       OBJ       652
    X24       CONSTR1   277
    X24       CONSTR2   511
    X24       CONSTR3   812
    X24       CONSTR4   103
    X24       CONSTR5   707
    X25       OBJ       711
    X25       CONSTR1   299
    X25       CONSTR2   347
    X25       CONSTR3   2
    X25       CONSTR4   120
    X25       CONSTR5   964
    X26       OBJ       675
    X26       CONSTR1   315
    X26       CONSTR2   434
    X26       CONSTR3   546
    X26       CONSTR4   478
    X26       CONSTR5   446
    X27       OBJ       710
    X27       CONSTR1   450
    X27       CONSTR2   598
    X27       CONSTR3   2
    X27       CONSTR4   162
    X27       CONSTR5   379
    X28       OBJ       1086
    X28       CONSTR1   817
    X28       CONSTR2   997
    X28       CONSTR3   589
    X28       CONSTR4   670
    X28       CONSTR5   603
    X29       OBJ       739
    X29       CONSTR1   154
    X29       CONSTR2   824
    X29       CONSTR3   668
    X29       CONSTR4   490
    X29       CONSTR5   639
    X30       OBJ       833
    X30       CONSTR1   705
    X30       CONSTR2   680
    X30       CONSTR3   394
    X30       CONSTR4   669
    X30       CONSTR5   790
    X31       OBJ       997
    X31       CONSTR1   377
    X31       CONSTR2   938
    X31       CONSTR3   484
    X31       CONSTR4   571
    X31       CONSTR5   611
    X32       OBJ       680
    X32       CONSTR1   489
    X32       CONSTR2   183
    X32       CONSTR3   489
    X32       CONSTR4   542
    X32       CONSTR5   473
    X33       OBJ       749
    X33       CONSTR1   239
    X33       CONSTR2   358
    X33       CONSTR3   85
    X33       CONSTR4   885
    X33       CONSTR5   266
    X34       OBJ       956
    X34       CONSTR1   399
    X34       CONSTR2   379
    X34       CONSTR3   732
    X34       CONSTR4   774
    X34       CONSTR5   108
    X35       OBJ       508
    X35       CONSTR1   220
    X35       CONSTR2   862
    X35       CONSTR3   2
    X35       CONSTR4   352
    X35       CONSTR5   840
    X36       OBJ       770
    X36       CONSTR1   582
    X36       CONSTR2   67
    X36       CONSTR3   132
    X36       CONSTR4   856
    X36       CONSTR5   691
    X37       OBJ       634
    X37       CONSTR1   208
    X37       CONSTR2   574
    X37       CONSTR3   496
    X37       CONSTR4   423
    X37       CONSTR5   461
    X38       OBJ       557
    X38       CONSTR1   160
    X38       CONSTR2   642
    X38       CONSTR3   888
    X38       CONSTR4   795
    X38       CONSTR5   14
    X39       OBJ       628
    X39       CONSTR1   457
    X39       CONSTR2   344
    X39       CONSTR3   603
    X39       CONSTR4   199
    X39       CONSTR5   607
    X40       OBJ       1002
    X40       CONSTR1   845
    X40       CONSTR2   740
    X40       CONSTR3   829
    X40       CONSTR4   584
    X40       CONSTR5   792
    X41       OBJ       699
    X41       CONSTR1   949
    X41       CONSTR2   416
    X41       CONSTR3   80
    X41       CONSTR4   941
    X41       CONSTR5   580
    X42       OBJ       986
    X42       CONSTR1   751
    X42       CONSTR2   868
    X42       CONSTR3   784
    X42       CONSTR4   426
    X42       CONSTR5   509
    X43       OBJ       833
    X43       CONSTR1   174
    X43       CONSTR2   285
    X43       CONSTR3   11
    X43       CONSTR4   724
    X43       CONSTR5   692
    X44       OBJ       1052
    X44       CONSTR1   888
    X44       CONSTR2   792
    X44       CONSTR3   541
    X44       CONSTR4   563
    X44       CONSTR5   909
    X45       OBJ       1102
    X45       CONSTR1   909
    X45       CONSTR2   365
    X45       CONSTR3   737
    X45       CONSTR4   546
    X45       CONSTR5   511
    X46       OBJ       1012
    X46       CONSTR1   947
    X46       CONSTR2   721
    X46       CONSTR3   997
    X46       CONSTR4   279
    X46       CONSTR5   454
    X47       OBJ       831
    X47       CONSTR1   604
    X47       CONSTR2   517
    X47       CONSTR3   518
    X47       CONSTR4   465
    X47       CONSTR5   178
    X48       OBJ       840
    X48       CONSTR1   216
    X48       CONSTR2   100
    X48       CONSTR3   553
    X48       CONSTR4   467
    X48       CONSTR5   678
    X49       OBJ       802
    X49       CONSTR1   734
    X49       CONSTR2   615
    X49       CONSTR3   603
    X49       CONSTR4   4
    X49       CONSTR5   187
    X50       OBJ       1053
    X50       CONSTR1   440
    X50       CONSTR2   777
    X50       CONSTR3   620
    X50       CONSTR4   336
    X50       CONSTR5   917
    X51       OBJ       923
    X51       CONSTR1   165
    X51       CONSTR2   532
    X51       CONSTR3   913
    X51       CONSTR4   989
    X51       CONSTR5   814
    X52       OBJ       668
    X52       CONSTR1   715
    X52       CONSTR2   468
    X52       CONSTR3   512
    X52       CONSTR4   580
    X52       CONSTR5   797
    X53       OBJ       493
    X53       CONSTR1   361
    X53       CONSTR2   149
    X53       CONSTR3   665
    X53       CONSTR4   836
    X53       CONSTR5   14
    X54       OBJ       957
    X54       CONSTR1   77
    X54       CONSTR2   933
    X54       CONSTR3   673
    X54       CONSTR4   901
    X54       CONSTR5   104
    X55       OBJ       1160
    X55       CONSTR1   830
    X55       CONSTR2   956
    X55       CONSTR3   739
    X55       CONSTR4   517
    X55       CONSTR5   495
    X56       OBJ       884
    X56       CONSTR1   921
    X56       CONSTR2   324
    X56       CONSTR3   604
    X56       CONSTR4   572
    X56       CONSTR5   580
    X57       OBJ       831
    X57       CONSTR1   522
    X57       CONSTR2   824
    X57       CONSTR3   358
    X57       CONSTR4   592
    X57       CONSTR5   301
    X58       OBJ       538
    X58       CONSTR1   729
    X58       CONSTR2   399
    X58       CONSTR3   63
    X58       CONSTR4   676
    X58       CONSTR5   420
    X59       OBJ       653
    X59       CONSTR1   955
    X59       CONSTR2   867
    X59       CONSTR3   382
    X59       CONSTR4   142
    X59       CONSTR5   526
    X60       OBJ       424
    X60       CONSTR1   870
    X60       CONSTR2   101
    X60       CONSTR3   176
    X60       CONSTR4   236
    X60       CONSTR5   690
    X61       OBJ       883
    X61       CONSTR1   128
    X61       CONSTR2   535
    X61       CONSTR3   58
    X61       CONSTR4   315
    X61       CONSTR5   942
    X62       OBJ       782
    X62       CONSTR1   179
    X62       CONSTR2   594
    X62       CONSTR3   485
    X62       CONSTR4   886
    X62       CONSTR5   98
    X63       OBJ       900
    X63       CONSTR1   941
    X63       CONSTR2   816
    X63       CONSTR3   501
    X63       CONSTR4   38
    X63       CONSTR5   965
    X64       OBJ       755
    X64       CONSTR1   568
    X64       CONSTR2   208
    X64       CONSTR3   565
    X64       CONSTR4   57
    X64       CONSTR5   399
    X65       OBJ       709
    X65       CONSTR1   88
    X65       CONSTR2   482
    X65       CONSTR3   511
    X65       CONSTR4   287
    X65       CONSTR5   108
    X66       OBJ       981
    X66       CONSTR1   798
    X66       CONSTR2   697
    X66       CONSTR3   768
    X66       CONSTR4   116
    X66       CONSTR5   382
    X67       OBJ       736
    X67       CONSTR1   132
    X67       CONSTR2   20
    X67       CONSTR3   645
    X67       CONSTR4   933
    X67       CONSTR5   929
    X68       OBJ       873
    X68       CONSTR1   653
    X68       CONSTR2   676
    X68       CONSTR3   891
    X68       CONSTR4   802
    X68       CONSTR5   943
    X69       OBJ       704
    X69       CONSTR1   649
    X69       CONSTR2   632
    X69       CONSTR3   46
    X69       CONSTR4   704
    X69       CONSTR5   630
    X70       OBJ       358
    X70       CONSTR1   442
    X70       CONSTR2   321
    X70       CONSTR3   8
    X70       CONSTR4   350
    X70       CONSTR5   541
    X71       OBJ       664
    X71       CONSTR1   509
    X71       CONSTR2   515
    X71       CONSTR3   387
    X71       CONSTR4   46
    X71       CONSTR5   151
    X72       OBJ       837
    X72       CONSTR1   988
    X72       CONSTR2   152
    X72       CONSTR3   754
    X72       CONSTR4   95
    X72       CONSTR5   937
    X73       OBJ       465
    X73       CONSTR1   128
    X73       CONSTR2   1
    X73       CONSTR3   656
    X73       CONSTR4   104
    X73       CONSTR5   406
    X74       OBJ       1025
    X74       CONSTR1   985
    X74       CONSTR2   142
    X74       CONSTR3   524
    X74       CONSTR4   953
    X74       CONSTR5   405
    X75       OBJ       898
    X75       CONSTR1   25
    X75       CONSTR2   824
    X75       CONSTR3   825
    X75       CONSTR4   245
    X75       CONSTR5   856
    X76       OBJ       658
    X76       CONSTR1   488
    X76       CONSTR2   400
    X76       CONSTR3   559
    X76       CONSTR4   549
    X76       CONSTR5   621
    X77       OBJ       764
    X77       CONSTR1   954
    X77       CONSTR2   243
    X77       CONSTR3   126
    X77       CONSTR4   682
    X77       CONSTR5   371
    X78       OBJ       614
    X78       CONSTR1   686
    X78       CONSTR2   870
    X78       CONSTR3   420
    X78       CONSTR4   894
    X78       CONSTR5   170
    X79       OBJ       523
    X79       CONSTR1   635
    X79       CONSTR2   74
    X79       CONSTR3   16
    X79       CONSTR4   313
    X79       CONSTR5   668
    X80       OBJ       499
    X80       CONSTR1   419
    X80       CONSTR2   232
    X80       CONSTR3   293
    X80       CONSTR4   780
    X80       CONSTR5   111
    X81       OBJ       1042
    X81       CONSTR1   915
    X81       CONSTR2   230
    X81       CONSTR3   919
    X81       CONSTR4   703
    X81       CONSTR5   614
    X82       OBJ       611
    X82       CONSTR1   238
    X82       CONSTR2   623
    X82       CONSTR3   66
    X82       CONSTR4   82
    X82       CONSTR5   748
    X83       OBJ       902
    X83       CONSTR1   967
    X83       CONSTR2   887
    X83       CONSTR3   653
    X83       CONSTR4   70
    X83       CONSTR5   103
    X84       OBJ       230
    X84       CONSTR1   161
    X84       CONSTR2   153
    X84       CONSTR3   449
    X84       CONSTR4   125
    X84       CONSTR5   222
    X85       OBJ       681
    X85       CONSTR1   809
    X85       CONSTR2   742
    X85       CONSTR3   125
    X85       CONSTR4   738
    X85       CONSTR5   140
    X86       OBJ       832
    X86       CONSTR1   43
    X86       CONSTR2   338
    X86       CONSTR3   536
    X86       CONSTR4   929
    X86       CONSTR5   433
    X87       OBJ       729
    X87       CONSTR1   803
    X87       CONSTR2   524
    X87       CONSTR3   243
    X87       CONSTR4   505
    X87       CONSTR5   54
    X88       OBJ       568
    X88       CONSTR1   416
    X88       CONSTR2   733
    X88       CONSTR3   699
    X88       CONSTR4   707
    X88       CONSTR5   211
    X89       OBJ       842
    X89       CONSTR1   943
    X89       CONSTR2   267
    X89       CONSTR3   966
    X89       CONSTR4   196
    X89       CONSTR5   680
    X90       OBJ       812
    X90       CONSTR1   4
    X90       CONSTR2   868
    X90       CONSTR3   112
    X90       CONSTR4   162
    X90       CONSTR5   796
    X91       OBJ       742
    X91       CONSTR1   319
    X91       CONSTR2   42
    X91       CONSTR3   12
    X91       CONSTR4   994
    X91       CONSTR5   105
    X92       OBJ       764
    X92       CONSTR1   960
    X92       CONSTR2   700
    X92       CONSTR3   94
    X92       CONSTR4   113
    X92       CONSTR5   553
    X93       OBJ       693
    X93       CONSTR1   386
    X93       CONSTR2   74
    X93       CONSTR3   859
    X93       CONSTR4   774
    X93       CONSTR5   997
    X94       OBJ       555
    X94       CONSTR1   911
    X94       CONSTR2   40
    X94       CONSTR3   750
    X94       CONSTR4   545
    X94       CONSTR5   194
    X95       OBJ       428
    X95       CONSTR1   148
    X95       CONSTR2   296
    X95       CONSTR3   655
    X95       CONSTR4   104
    X95       CONSTR5   870
    X96       OBJ       763
    X96       CONSTR1   598
    X96       CONSTR2   805
    X96       CONSTR3   766
    X96       CONSTR4   925
    X96       CONSTR5   457
    X97       OBJ       1163
    X97       CONSTR1   238
    X97       CONSTR2   969
    X97       CONSTR3   987
    X97       CONSTR4   931
    X97       CONSTR5   206
    X98       OBJ       603
    X98       CONSTR1   569
    X98       CONSTR2   230
    X98       CONSTR3   54
    X98       CONSTR4   694
    X98       CONSTR5   432
    X99       OBJ       1183
    X99       CONSTR1   934
    X99       CONSTR2   900
    X99       CONSTR3   992
    X99       CONSTR4   217
    X99       CONSTR5   432
    X100      OBJ       905
    X100      CONSTR1   488
    X100      CONSTR2   492
    X100      CONSTR3   692
    X100      CONSTR4   127
    X100      CONSTR5   963
    INT0001   'MARKER'  'INTEND'
RHS
    RHS10001  CONSTR1   37823
    RHS10001  CONSTR2   38170
    RHS10001  CONSTR3   37343
    RHS10001  CONSTR4   36230
    RHS10001  CONSTR5   37370
BOUNDS
 BV BND       X1        .00
 BV BND       X2        .00
 BV BND       X3        .00
 BV BND       X4        .00
 BV BND       X5        .00
 BV BND       X6        .00
 BV BND       X7        .00
 BV BND       X8        .00
 BV BND       X9        .00
 BV BND       X10       .00
 BV BND       X11       .00
 BV BND       X12       .00
 BV BND       X13       .00
 BV BND       X14       .00
 BV BND       X15       .00
 BV BND       X16       .00
 BV BND       X17       .00
 BV BND       X18       .00
 BV BND       X19       .00
 BV BND       X20       .00
 BV BND       X21       .00
 BV BND       X22       .00
 BV BND       X23       .00
 BV BND       X24       .00
 BV BND       X25       .00
 BV BND       X26       .00
 BV BND       X27       .00
 BV BND       X28       .00
 BV BND       X29       .00
 BV BND       X30       .00
 BV BND       X31       .00
 BV BND       X32       .00
 BV BND       X33       .00
 BV BND       X34       .00
 BV BND       X35       .00
 BV BND       X36       .00
 BV BND       X37       .00
 BV BND       X38       .00
 BV BND       X39       .00
 BV BND       X40       .00
 BV BND       X41       .00
 BV BND       X42       .00
 BV BND       X43       .00
 BV BND       X44       .00
 BV BND       X45       .00
 BV BND       X46       .00
 BV BND       X47       .00
 BV BND       X48       .00
 BV BND       X49       .00
 BV BND       X50       .00
 BV BND       X51       .00
 BV BND       X52       .00
 BV BND       X53       .00
 BV BND       X54       .00
 BV BND       X55       .00
 BV BND       X56       .00
 BV BND       X57       .00
 BV BND       X58       .00
 BV BND       X59       .00
 BV BND       X60       .00
 BV BND       X61       .00
 BV BND       X62       .00
 BV BND       X63       .00
 BV BND       X64       .00
 BV BND       X65       .00
 BV BND       X66       .00
 BV BND       X67       .00
 BV BND       X68       .00
 BV BND       X69       .00
 BV BND       X70       .00
 BV BND       X71       .00
 BV BND       X72       .00
 BV BND       X73       .00
 BV BND       X74       .00
 BV BND       X75       .00
 BV BND       X76       .00
 BV BND       X77       .00
 BV BND       X78       .00
 BV BND       X79       .00
 BV BND       X80       .00
 BV BND       X81       .00
 BV BND       X82       .00
 BV BND       X83       .00
 BV BND       X84       .00
 BV BND       X85       .00
 BV BND       X86       .00
 BV BND       X87       .00
 BV BND       X88       .00
 BV BND       X89       .00
 BV BND       X90       .00
 BV BND       X91       .00
 BV BND       X92       .00
 BV BND       X93       .00
 BV BND       X94       .00
 BV BND       X95       .00
 BV BND       X96       .00
 BV BND       X97       .00
 BV BND       X98       .00
 BV BND       X99       .00
 BV BND       X100      .00
ENDATA
